letting initialStacks = [46, 32, 37, 18, 24, 36, 5, 51, 43, 38, 17, 23, 3, 44, 45, 15, 49, 41, 33, 30, 28, 1, 10, 8, 29, 25, 20, 4, 40, 42, 47, 39, 22, 14, 12, 48, 19, 7, 50, 34, 11, 13, 26, 31, 27, 9, 35, 16, 2, 21, 6]
